c --- [ banner ] -------------------------------------------------------------
c 
c CaDiCaL Radically Simplified CDCL SAT Solver
c Copyright (c) 2016-2021 A. Biere, M. Fleury, N. Froleyks
c 
c Version 1.5.2 a5f15211db36c3956764e18194dd5bd63bf3b5e6
c g++ (GCC) 9.3.0 -Wall -Wextra -O3 -DNDEBUG
c Fri Oct 21 01:27:37 EDT 2022 Linux gra-login3 3.10.0-1160.66.1.el7.x86_64 x86_64
c 
c --- [ limit ] --------------------------------------------------------------
c 
c setting conflict limit to 200000 conflicts (due to '200000')
c 
c --- [ parsing input ] ------------------------------------------------------
c 
c reading DIMACS file from '33.cubes5314.adj'
c opening file to read '33.cubes5314.adj'
c found 'p cnf 6160 1595474' header
c parsed 1595474 clauses in 18.91 seconds process time
c closing file '33.cubes5314.adj'
c after reading 1457566768 bytes 1390.0 MB
c 
c --- [ options ] ------------------------------------------------------------
c 
c all options are set to their default value
c 
c --- [ solving ] ------------------------------------------------------------
c 
c time measured in process time since initialization
c 
c  seconds    reductions  redundant   irredundant
c          MB     restarts       trail       variables
c            level   conflicts       glue         remaining
c 
c * 18.91 1376  0 0   0    0    0  0% 0 1595422 2408 39%
c { 19.38 1404  0 0   0    0    0  0% 0 1595422 2408 39%
c i 19.55 1409 1176 0   0    5    4 31% 1 1595422 2321 38%
c i 21.19 1475 758 0   3   22   20 36% 17 1595422 2271 37%
c i 22.74 1493 298 0   9   66   61 30% 24 1595422 2269 37%
c i 23.78 1497 167 0   9  140  122 29% 21 1595422 2268 37%
c i 23.94 1497 139 0   9  176  148 29% 21 1595422 2267 37%
c i 23.96 1497 132 0   9  188  158 29% 21 1595422 2266 37%
c i 24.19 1498 122 0  12  218  184 29% 24 1595422 2265 37%
c i 24.20 1498 121 0  13  220  185 29% 24 1595422 2264 37%
c i 24.34 1498 110 0  19  251  210 29% 24 1595422 2263 37%
c i 24.35 1498 107 0  19  258  216 30% 23 1595422 2262 37%
c i 24.36 1498 103 0  19  268  222 30% 23 1595422 2261 37%
c i 24.40 1498 103 0  19  269  222 30% 23 1595422 2260 37%
c i 24.45 1499 100 0  19  278  229 30% 22 1595422 2259 37%
c i 24.46 1499 100 0  19  281  231 30% 22 1595422 2258 37%
c - 28.17 1430 98 1  19  300  243 29% 23 185399 2258 37%
c i 28.32 1387 97 1  19  305  247 29% 22 185399 2257 37%
c i 28.42 1388 101 1  19  325  264 29% 21 185399 2256 37%
c i 28.96 1388 84 1  32  448  340 27% 23 185399 2255 37%
c 
c  seconds    reductions  redundant   irredundant
c          MB     restarts       trail       variables
c            level   conflicts       glue         remaining
c 
c i 28.97 1388 84 1  33  453  342 27% 23 185399 2254 37%
c i 29.01 1388 84 1  35  460  348 27% 23 185399 2253 37%
c i 29.02 1388 84 1  36  462  349 27% 23 185399 2252 37%
c i 29.02 1388 84 1  36  465  350 27% 23 185399 2250 37%
c i 29.03 1388 85 1  37  467  350 27% 23 185399 2248 36%
c i 29.22 1388 92 1  45  505  382 27% 28 185399 2247 36%
c i 29.22 1388 92 1  45  506  382 27% 28 185399 2246 36%
c i 29.38 1388 90 1  53  541  408 27% 28 185399 2245 36%
c i 29.39 1388 89 1  54  544  410 27% 28 185399 2244 36%
c i 29.43 1388 88 1  56  553  417 27% 28 185399 2243 36%
c i 29.44 1388 88 1  56  554  417 27% 28 185399 2242 36%
c i 29.45 1388 88 1  56  557  419 27% 28 185399 2241 36%
c i 29.47 1388 88 1  58  564  425 27% 28 185399 2240 36%
c i 29.55 1388 86 1  60  592  442 27% 28 185399 2239 36%
c i 29.57 1388 86 1  60  597  446 27% 28 185399 2238 36%
c i 29.58 1388 86 1  61  601  449 27% 28 185399 2237 36%
c i 29.60 1388 86 1  62  604  451 27% 28 185399 2236 36%
c i 30.19 1388 70 1  80  874  568 26% 26 185399 2235 36%
c i 30.23 1388 70 1  80  884  576 26% 26 185399 2234 36%
c i 30.36 1388 67 1  80  930  602 26% 25 185399 2233 36%
c 
c  seconds    reductions  redundant   irredundant
c          MB     restarts       trail       variables
c            level   conflicts       glue         remaining
c 
c i 30.46 1388 65 1  80  967  627 26% 25 185399 2232 36%
c i 30.52 1388 65 1  80  992  647 26% 25 185399 2231 36%
c } 30.58 1388 65 1  80 1000  655 26% 25 185399 2231 36%
c [ 30.58 1388  0 1  80 1000  655  0% 0 185399 2231 36%
c O 30.60 1388 54 1  80 1004  659 30% 42 185399 2231 36%
c i 30.74 1388 13 1  80 1058  678 24% 10 185399 2230 36%
c - 31.08 1469 13 2  80 1063  562 25% 10 185315 2230 36%
c i 31.14 1469 14 2  80 1071  567 26% 10 185315 2229 36%
c i 31.15 1469 13 2  80 1072  567 26% 10 185315 2228 36%
c i 31.18 1469 15 2  80 1089  577 27% 12 185315 2227 36%
c i 31.18 1469 14 2  80 1090  577 27% 11 185315 2226 36%
c i 31.18 1469 14 2  80 1092  578 27% 11 185315 2225 36%
c i 31.18 1469 15 2  80 1099  581 27% 12 185315 2224 36%
c i 31.18 1469 14 2  80 1101  581 27% 12 185315 2223 36%
c i 31.22 1469 15 2  80 1130  597 28% 12 185315 2222 36%
c i 31.23 1469 15 2  80 1140  603 29% 12 185315 2221 36%
c i 31.26 1469 17 2  80 1189  641 30% 14 185315 2220 36%
c i 31.26 1469 16 2  80 1191  640 30% 13 185315 2219 36%
c i 31.27 1469 16 2  80 1199  644 30% 13 185315 2218 36%
c i 31.28 1469 16 2  80 1220  658 30% 14 185315 2217 36%
c 
c  seconds    reductions  redundant   irredundant
c          MB     restarts       trail       variables
c            level   conflicts       glue         remaining
c 
c i 31.29 1469 16 2  80 1232  663 30% 13 185315 2216 36%
c i 31.31 1469 16 2  80 1279  687 30% 14 185315 2215 36%
c i 31.31 1469 16 2  80 1280  687 30% 14 185315 2214 36%
c i 31.32 1469 16 2  80 1286  690 30% 14 185315 2213 36%
c i 31.41 1469 15 2  80 1507  789 31% 13 185315 2212 36%
c i 31.42 1469 15 2  80 1517  785 31% 13 185315 2211 36%
c i 31.42 1469 15 2  80 1520  784 31% 13 185315 2210 36%
c i 31.42 1469 15 2  80 1526  787 31% 13 185315 2209 36%
c i 31.43 1469 15 2  80 1531  789 31% 13 185315 2208 36%
c i 31.44 1469 14 2  80 1566  799 31% 13 185315 2207 36%
c i 31.44 1469 14 2  80 1567  799 31% 13 185315 2206 36%
c i 31.50 1469 15 2  80 1658  824 31% 13 185315 2205 36%
c i 31.51 1469 15 2  80 1663  827 31% 13 185315 2204 36%
c i 31.51 1469 15 2  80 1664  827 31% 13 185315 2203 36%
c i 31.52 1469 15 2  80 1679  834 31% 13 185315 2202 36%
c i 31.52 1469 15 2  80 1682  834 31% 13 185315 2201 36%
c i 31.53 1469 16 2  80 1699  844 31% 13 185315 2200 36%
c i 31.54 1469 17 2  80 1714  853 31% 14 185315 2199 36%
c i 31.55 1469 17 2  80 1731  863 31% 14 185315 2198 36%
c i 31.56 1469 17 2  80 1737  863 31% 15 185315 2197 36%
c 
c  seconds    reductions  redundant   irredundant
c          MB     restarts       trail       variables
c            level   conflicts       glue         remaining
c 
c i 31.58 1469 18 2  80 1782  894 31% 15 185315 2196 36%
c i 31.60 1469 19 2  80 1833  925 31% 16 185315 2195 36%
c i 31.61 1469 19 2  80 1844  929 31% 16 185315 2194 36%
c i 31.61 1469 19 2  80 1845  929 31% 16 185315 2193 36%
c i 31.61 1469 19 2  80 1846  929 31% 16 185315 2192 36%
c i 31.61 1469 19 2  80 1847  929 31% 16 185315 2191 36%
c i 31.61 1469 19 2  80 1848  929 31% 16 185315 2190 36%
c i 31.62 1469 19 2  80 1857  935 31% 16 185315 2189 36%
c i 31.64 1469 19 2  80 1887  955 31% 16 185315 2188 36%
c i 31.64 1469 19 2  80 1893  958 31% 16 185315 2187 36%
c i 31.66 1469 20 2  80 1970 1005 31% 17 185315 2186 35%
c i 31.66 1469 20 2  80 1972 1006 31% 17 185315 2185 35%
c i 31.68 1469 20 2  80 2026 1034 31% 17 185315 2184 35%
c i 31.68 1469 20 2  80 2027 1034 31% 17 185315 2183 35%
c i 31.69 1469 20 2  81 2062 1056 31% 17 185315 2182 35%
c i 31.69 1469 20 2  81 2063 1056 31% 17 185315 2181 35%
c i 31.70 1469 20 2  81 2070 1060 31% 17 185315 2180 35%
c i 31.73 1469 20 2  81 2139 1092 31% 16 185315 2179 35%
c i 31.75 1469 20 2  81 2156 1106 31% 16 185315 2178 35%
c i 31.75 1469 20 2  81 2163 1111 31% 16 185315 2177 35%
c 
c  seconds    reductions  redundant   irredundant
c          MB     restarts       trail       variables
c            level   conflicts       glue         remaining
c 
c - 32.05 1461 19 3  81 2204  833 31% 16 185156 2177 35%
c i 32.31 1460 19 3  81 2284  859 52% 16 185156 2176 35%
c i 32.39 1460 19 3  81 2447  983 52% 16 185156 2175 35%
c ] 32.56 1460 19 3  81 2831 1197 51% 16 185156 2175 35%
c 1 32.56 1460 19 3  81 2831 1197 51% 16 185156 2175 35%
c 
c --- [ writing output ] -----------------------------------------------------
c 
c writing simplified CNF to DIMACS file 'simp/33.cubes5314.adj.simp1'
c * 32.56 1460 19 3  81 2831 1197 51% 16 185156 2175 35%
c opening file to write 'simp/33.cubes5314.adj.simp1'
c writing 'p cnf 6160 185150' header
c closing file 'simp/33.cubes5314.adj.simp1'
c after writing 83828621 bytes 79.9 MB
c wrote 185150 clauses in 0.65 seconds process time
c 
c --- [ writing extension ] --------------------------------------------------
c 
c writing extension stack to 'simp/33.cubes5314.adj.ext1'
c opening file to write 'simp/33.cubes5314.adj.ext1'
c closing file 'simp/33.cubes5314.adj.ext1'
c after writing 12528 bytes 0.0 MB
c wrote 841 witnesses in 0.00 seconds process time
c 
c --- [ result ] -------------------------------------------------------------
c 
s SATISFIABLE
c 
c --- [ run-time profiling ] -------------------------------------------------
c 
c process time taken by individual solving procedures
c (percentage relative to process time for solving)
c 
c        18.91  138.53% parse
c        13.65  100.00% search
c        11.20   82.05% unstable
c         1.98   14.52% stable
c         0.47    3.43% lucky
c         0.00    0.00% simplify
c   =================================
c        13.65   41.10% solve
c 
c last line shows process time for solving
c (percentage relative to total process time)
c 
c --- [ statistics ] ---------------------------------------------------------
c 
c chronological:               613        21.65 %  of conflicts
c conflicts:                  2831       207.40    per second
c decisions:                 17715      1297.81    per second
c fixed:                       841        13.65 %  of all variables
c learned:                    2775        98.02 %  per conflict
c learned_lits:             466413       100.00 %  learned literals
c minimized:                     0         0.00 %  learned literals
c shrunken:                 365142        78.29 %  learned literals
c minishrunken:              12116         2.60 %  learned literals
c propagations:             465663         0.03 M  per second
c reduced:                     420        14.84 %  per conflict
c rephased:                      1      2831.00    interval
c restarts:                     81        34.95    interval
c stabilizing:                   1        64.68 %  of conflicts
c subsumed:                   1061         0.03 %  of all clauses
c 
c seconds are measured in process time for solving
c 
c --- [ resources ] ----------------------------------------------------------
c 
c total process time since initialization:        33.21    seconds
c total real time since initialization:           33.61    seconds
c maximum resident set size of process:         1541.20    MB
c 
c --- [ shutting down ] ------------------------------------------------------
c 
c exit 10
WARNING! DIMACS header mismatch: wrong number of variables.
============================[ Problem Statistics ]=============================
|                                                                             |
|  Number of variables:          6120                                         |
|  Number of clauses:          185150                                         |
|  Parse time:                   1.10 s                                       |
|  Simplification time:          0.02 s                                       |
|                                                                             |
============================[ Search Statistics ]====================================================
| Conflicts |          ORIGINAL         |          LEARNT          | Num Sols |      SUBGRAPHS      |
|           |    Vars  Clauses Literals |    Limit  Clauses Lit/Cl |          | Canonical Noncanon. |
=====================================================================================================
|       100 |    6022   185150 18128773 |     2000       99     30 |        0 |        39         0 |
|       273 |    6022   185173 18129574 |     2000      272     61 |        0 |        56        23 |
|       502 |    6022   185177 18129616 |     2000      501     38 |        0 |       105        27 |
|       846 |    6020   185184 18129690 |     2000      843     29 |        0 |       161        34 |
|      1416 |    6020   185248 18130844 |     2000     1413     42 |        0 |       199        98 |
|      2569 |    6004   185642 18136427 |     3597     1562     19 |        0 |       339       492 |
|      3842 |    5996   185776 18138224 |     3597     2827     43 |        0 |       412       626 |
|      5717 |    5995   185943 18140782 |     4994     2911     42 |        0 |       506       793 |
|      8358 |    5995   186022 18141805 |     6304     3062     35 |        0 |       533       872 |
|     12701 |    5995   186521 18147263 |     7560     4261     39 |        0 |       632      1371 |
=====================================================================================================
Number of solutions   : 0
Canonical subgraphs   : 823            (58 /sec)
          order  3    : 1              (142857 /sec)
          order  4    : 1              (500000 /sec)
          order  5    : 1              (250000 /sec)
          order  6    : 1              (52632 /sec)
          order  7    : 1              (8264 /sec)
          order  8    : 3              (1684 /sec)
          order  9    : 10             (459 /sec)
          order 10    : 44             (261 /sec)
          order 11    : 138            (216 /sec)
          order 12    : 36             (150 /sec)
          order 13    : 42             (98 /sec)
          order 14    : 38             (80 /sec)
          order 15    : 39             (63 /sec)
          order 16    : 236            (53 /sec)
          order 17    : 170            (37 /sec)
          order 18    : 30             (25 /sec)
          order 19    : 24             (25 /sec)
          order 20    : 6              (30 /sec)
          order 21    : 2              (31 /sec)
          order 22    : 0              (-nan /sec)
Noncanonical subgraphs: 1892           (287 /sec)
          order  3    : 0              (-nan /sec)
          order  4    : 0              (-nan /sec)
          order  5    : 0              (-nan /sec)
          order  6    : 0              (-nan /sec)
          order  7    : 0              (-nan /sec)
          order  8    : 0              (-nan /sec)
          order  9    : 0              (-nan /sec)
          order 10    : 0              (-nan /sec)
          order 11    : 0              (-nan /sec)
          order 12    : 0              (-nan /sec)
          order 13    : 171            (5819 /sec)
          order 14    : 112            (4908 /sec)
          order 15    : 96             (2518 /sec)
          order 16    : 854            (560 /sec)
          order 17    : 302            (264 /sec)
          order 18    : 355            (94 /sec)
          order 19    : 0              (-nan /sec)
          order 20    : 0              (-nan /sec)
          order 21    : 0              (-nan /sec)
Canonicity checking   : 14.1475 s
Noncanonicity checking: 6.59084 s
Total canonicity time : 20.7383 s
database reductions   : 5
restarts              : 63
conflicts             : 16821          (614 /sec)
decisions             : 43752          (0.00 % random) (1596 /sec)
propagations          : 1610725        (58764 /sec)
conflict literals     : 1301244        (55.87 % deleted)
actual reward         : 0.127685
Memory used           : 96.00 MB
CPU time              : 27.4103 s

UNSATISFIABLE
